# Example from https://sboyles.github.io/teaching/ce367r/04-mincostflow.pdf, slide 25
# version without lower bound (same result)

set N := 1 2 3 4;

set A :=
    1 2
    1 3
    2 3
    3 4
    2 4
    ;

param:
   capacity :=
      1 2 1
      1 3 3
      2 3 2
      3 4 3
      2 4 2
      ;

param:
    cost :=
        1 2 1
        1 3 5
        2 3 1
        3 4 2
        2 4 4
        ;

param:
    balance :=
        1 2
        2 2
        3 -2
        4 -2
        ;

end;
